(declare-const delta_n Int)
(declare-const delta___cost Int)
(declare-const delta_tmp Int)
(assert (exists
         ((havoc?1 Int) (phi_tmp?2 Int) (phi___cost?3 Int) (|S2,0?4| Real)
            (|tmp'?5| Int) (|S1,1?6| Real) (|n'?7| Int) (|S1,0?8| Real)
            (|__cost'?9| Int) (KSUM2?10 Int) (KSUM1?11 Int) (R2?12 Int)
            (|K1,0?13| Int) (K?14 Int) (|n'?15| Int) (|tmp'?16| Int)
            (|__cost'?17| Int) (tmp?18 Int) (n?19 Int) (__cost?20 Int))
         (and (< (- n?19) 0) (<= (- K?14) 0) (<= (- |K1,0?13|) 0)
                (= (+ |K1,0?13| (- K?14)) 0)
                (or (and (= (- K?14) 0) (= (+ R2?12 1) 0))
                      (and (or (< (- K?14) 0) (< 0 (- K?14)))
                             (or (< (+ R2?12 1) 0) (< 0 (+ R2?12 1)))))
                (or (and (= (+ (- KSUM2?10) KSUM1?11) 0)
                           (= (+ (- R2?12) -1) 0))
                      (and (or (< (+ (- KSUM2?10) KSUM1?11) 0)
                                 (< 0 (+ (- KSUM2?10) KSUM1?11)))
                             (or (< (+ (- R2?12) -1) 0)
                                   (< 0 (+ (- R2?12) -1)))))
                (<= (+ KSUM1?11 (- K?14)) 0) (<= (+ KSUM2?10 (- K?14)) 0)
                (= (+ (- |S1,0?8|) |__cost'?9| (- |K1,0?13|)) 0)
                (= (+ (- |S1,1?6|) |n'?7| |K1,0?13|) 0)
                (= (+ (- |S2,0?4|) |tmp'?5|) 0)
                (= (+ (- KSUM1?11) |K1,0?13|) 0) (= (- KSUM2?10) 0)
                (= (+ (- __cost?20) |S1,0?8|) 0)
                (= (+ |S1,1?6| (- n?19) 1) 0)
                (or (and (= (+ (- tmp?18) |S2,0?4|) 0) (= (+ R2?12 1) 0))
                      (and (= |S2,0?4| 0)
                             (or (<= 0 (+ KSUM2?10 (- KSUM1?11)))
                                   (<= (+ (- |K1,0?13|) 1) 0)) (= R2?12 0)))
                (or (and (= K?14 0) (= (+ (- |n'?7|) n?19 -1) 0)
                           (= (+ tmp?18 (- |tmp'?5|)) 0)
                           (= (+ __cost?20 (- |__cost'?9|)) 0))
                      (and (<= (+ (- K?14) 1) 0) (<= (+ (- n?19) 2) 0)
                             (<= (- __cost?20) 0) (= |tmp'?5| 0)
                             (<= (- |n'?7|) 0) (<= (+ (- |__cost'?9|) 1) 0)))
                (= (+ (- __cost?20) |__cost'?9| (- K?14)) 0)
                (= (+ |n'?7| K?14 (- n?19) 1) 0) (<= (- K?14) 0)
                (or (and (<= (- |n'?7|) 0) (<= |n'?7| 0)
                           (= (+ (- phi___cost?3) |__cost'?9|) 0)
                           (= (+ (- phi_tmp?2) |tmp'?5|) 0))
                      (and (<= (- |n'?7|) 0) (< (- |n'?7|) 0)
                             (<= (- |__cost'?9|) 0)
                             (<= (+ (- |__cost'?9|) -1) 0)
                             (or (< havoc?1 0) (< 0 havoc?1))
                             (= (+ (- phi___cost?3) |__cost'?9| 1) 0)
                             (= (+ havoc?1 (- phi_tmp?2)) 0)))
                (= (+ |n'?15| (- |n'?7|)) 0)
                (= (+ |tmp'?16| (- phi_tmp?2)) 0)
                (= (+ |__cost'?17| (- phi___cost?3)) 0)
                (= delta___cost (+ |__cost'?17| (- __cost?20)))
                (= delta_tmp (+ |tmp'?16| (- tmp?18)))
                (= delta_n (+ |n'?15| (- n?19))))))
(check-sat)
